# Solution for model r3_t9_m8_0
# Finished Task: 9 / 9
# Makespan: 403.0, Total Distance: 279.0, Total Time: 2.1459
# R O S F
0 0 8 8.0 8.0
1 1 7 8.0 8.0
2 2 5 4.0 4.0
3 1 -1 368.0 403.0
4 2 -1 341.0 373.0
5 2 11 126.0 159.0
6 1 10 215.0 236.0
7 1 6 148.0 182.0
8 0 -1 373.0 403.0
9 2 4 267.0 303.0
10 1 3 312.0 351.0
11 2 9 202.0 227.0
